100
120
98
97
97
97
97
96
96
96
96
95
93
93
92
91
90
90
88
88
87
87
87
86
86
86
85
83
83
80
80
80
77
76
76
76
75
75
75
70
69
69
68
67
66
65
65
65
64
61
60
59
59
58
58
58
55
55
54
54
54
54
54
53
53
52
52
52
50
50
46
46
46
45
45
44
44
41
41
40
39
39
37
33
32
31
30
30
29
29
29
28
26
24
24
23
22
22
21
21
20
20
